param set_len = 44;
param target_sum = 10439174526;
param values := [1] 60493412 [2] 533955214 [3] 502047307 [4] 284467489 [5] 241467032 [6] 486464457 [7] 245250966 [8] 263392209 [9] 1067624645 [10] 232294049 [11] 1033650655 [12] 134679031 [13] 1009910339 [14] 321298720 [15] 585534268 [16] 474683345 [17] 299684586 [18] 261510991 [19] 455949396 [20] 563777366 [21] 228481165 [22] 978802021 [23] 83237011 [24] 557933112 [25] 221565373 [26] 671940349 [27] 916188191 [28] 57319279 [29] 5080578 [30] 45295222 [31] 211063243 [32] 157140042 [33] 680164523 [34] 730744681 [35] 756022578 [36] 409462128 [37] 547087512 [38] 506741299 [39] 391790499 [40] 402538012 [41] 318916189 [42] 426587786 [43] 327973565 [44] 167614597 ;
